NAME (null)_copy
ROWS
 N  OBJ
 L  BP11..S1
 E  BP12..S1
 L  BP13..S1
 E  BP14..S1
 L  BP15..S1
 E  BP16..S1
 L  BP11..S2
 E  BP12..S2
 L  BP13..S2
 E  BP14..S2
 L  BP15..S2
 E  BP16..S2
 E  BP11..T1
 E  BP21..T1
 E  BP12..T1
 E  BP22..T1
 E  BP13..T1
 E  BP23..T1
 E  BP14..T1
 E  BP24..T1
 E  BP15..T1
 E  BP25..T1
 E  BP16..T1
 E  BP26..T1
 E  BP11..T2
 E  BP21..T2
 E  BP12..T2
 E  BP22..T2
 E  BP13..T2
 E  BP23..T2
 E  BP14..T2
 E  BP24..T2
 E  BP15..T2
 E  BP25..T2
 E  BP16..T2
 E  BP26..T2
 E  BP11..T3
 E  BP21..T3
 E  BP12..T3
 E  BP22..T3
 E  BP13..T3
 E  BP23..T3
 E  BP14..T3
 E  BP24..T3
 E  BP15..T3
 E  BP25..T3
 E  BP16..T3
 E  BP26..T3
 E  BP11..T4
 E  BP21..T4
 E  BP12..T4
 E  BP22..T4
 E  BP13..T4
 E  BP23..T4
 E  BP14..T4
 E  BP24..T4
 E  BP15..T4
 E  BP25..T4
 E  BP16..T4
 E  BP26..T4
 E  C..5..T1
 E  C..3..T2
 E  C..5..T2
 E  C..3..T3
 E  C..5..T3
 E  C..3..T4
 E  C..5..T4
 L  FIN...1.
 L  FIN...2.
 L  FIN...3.
 L  I..1..T1
 L  I..2..T1
 L  I..3..T1
 L  I..4..T1
 L  I..5..T1
 L  I..6..T1
 L  I..1..T2
 L  I..2..T2
 L  I..3..T2
 L  I..4..T2
 L  I..5..T2
 L  I..6..T2
 L  I..1..T3
 L  I..2..T3
 L  I..3..T3
 L  I..4..T3
 L  I..5..T3
 L  I..6..T3
 L  I..1..T4
 L  I..2..T4
 L  I..3..T4
 L  I..4..T4
 L  I..5..T4
 L  I..6..T4
 L  KM.1..T2
 L  KN.1..T2
 L  KM.3..T2
 L  KN.3..T2
 L  KM.5..T2
 L  KN.5..T2
 L  KM.1..T4
 L  KN.1..T4
 L  KM.3..T4
 L  KN.3..T4
 L  KM.5..T4
 L  KN.5..T4
 L  LN.3..T1
 L  LY....T2
 L  LC.3..T2
 L  LC.5..T2
 L  LY....T4
 L  LC.3..T4
 L  LC.5..T4
 L  TYEAR1T1
 L  TYEAR2T1
 L  TYEAR3T1
 E  TB.1S1T1
 E  TB.1S2T1
 E  TB.2S1T1
 E  TB.2S2T1
 E  TB.3S1T1
 E  TB.3S2T1
 E  TB.4S1T1
 E  TB.4S2T1
 E  TB.5S1T1
 E  TB.5S2T1
 E  TB.6S1T1
 E  TB.6S2T1
 L  TYEAR1T2
 L  TYEAR2T2
 L  TYEAR3T2
 E  TB.1S1T2
 E  TB.1S2T2
 E  TB.2S1T2
 E  TB.2S2T2
 E  TB.3S1T2
 E  TB.3S2T2
 E  TB.4S1T2
 E  TB.4S2T2
 E  TB.5S1T2
 E  TB.5S2T2
 E  TB.6S1T2
 E  TB.6S2T2
 L  TYEAR1T3
 L  TYEAR2T3
 L  TYEAR3T3
 E  TB.2S2T3
 E  TB.3S1T3
 E  TB.3S2T3
 E  TB.4S1T3
 E  TB.4S2T3
 E  TB.5S2T3
 E  TB.6S2T3
 L  TYEAR1T4
 L  TYEAR2T4
 L  TYEAR3T4
 E  TB.1S1T4
 E  TB.1S2T4
 E  TB.2S1T4
 E  TB.2S2T4
 E  TB.3S1T4
 E  TB.3S2T4
 E  TB.4S1T4
 E  TB.4S2T4
 E  TB.5S1T4
 E  TB.5S2T4
 E  TB.6S1T4
 E  TB.6S2T4
COLUMNS
    A..2X1S1  BP12..S1  1
    A..2X2S1  OBJ       2.5
    A..2X2S1  BP12..S1  1
    A..2X3S1  OBJ       3
    A..2X3S1  BP12..S1  1
    A..4X1S1  BP14..S1  1
    A..4X2S1  OBJ       2.5
    A..4X2S1  BP14..S1  1
    A..4X3S1  OBJ       3
    A..4X3S1  BP14..S1  1
    A..6X1S1  BP16..S1  1
    A..6X2S1  OBJ       2.5
    A..6X2S1  BP16..S1  1
    A..6X3S1  OBJ       3
    A..6X3S1  BP16..S1  1
    A..2X1S2  BP12..S2  1
    A..2X2S2  OBJ       2.5
    A..2X2S2  BP12..S2  1
    A..2X3S2  OBJ       3
    A..2X3S2  BP12..S2  1
    A..4X1S2  BP14..S2  1
    A..4X2S2  OBJ       2.5
    A..4X2S2  BP14..S2  1
    A..4X3S2  OBJ       3
    A..4X3S2  BP14..S2  1
    A..6X1S2  BP16..S2  1
    A..6X2S2  OBJ       2.5
    A..6X2S2  BP16..S2  1
    A..6X3S2  OBJ       3
    A..6X3S2  BP16..S2  1
    CIN1..T1  OBJ       1.07925
    CIN1..T1  FIN...2.  -38.3
    CIN1..T1  LN.3..T1  0.8
    CIN1..T1  I..2..T1  -1
    CIN1..T1  I..1..T1  -1
    CIN1..T1  FIN...1.  31.75
    C..3..T1  OBJ       6.128
    C..3..T1  FIN...2.  38.3
    C..3..T1  LN.3..T1  -0.8
    C..3..T1  C..5..T1  1
    C..3..T1  I..4..T1  -1
    C..3..T1  I..3..T1  -1
    C..5..T1  I..6..T1  -1
    C..5..T1  C..5..T1  -1
    C..5..T1  I..5..T1  -1
    CVA5..T1  OBJ       2.346
    CVA5..T1  C..5..T1  1
    CVA5..T1  FIN...3.  27.6
    CIN1..T2  OBJ       7.20725
    CIN1..T2  C..3..T2  1
    CIN1..T2  I..2..T2  -1
    CIN1..T2  I..1..T2  -1
    CIN1..T2  KM.1..T2  1
    CIN1..T2  KN.1..T2  -1
    CIN1..T2  FIN...1.  31.75
    CIN3..T2  OBJ       5.08
    CIN3..T2  C..3..T2  1
    CIN3..T2  KM.3..T2  1
    CIN3..T2  KN.3..T2  -1
    CIN3..T2  FIN...2.  31.75
    CVA3..T2  OBJ       6.128
    CVA3..T2  LC.3..T2  0.1
    CVA3..T2  C..3..T2  1
    CVA3..T2  FIN...2.  38.3
    C..4..T2  I..3..T2  -1
    C..4..T2  C..3..T2  -1
    C..4..T2  I..4..T2  -1
    C..4..T2  C..5..T2  1
    C..5..T2  I..6..T2  -1
    C..5..T2  C..5..T2  -1
    C..5..T2  I..5..T2  -1
    CIN5..T2  OBJ       2.69875
    CIN5..T2  C..5..T2  1
    CIN5..T2  KM.5..T2  1
    CIN5..T2  KN.5..T2  -1
    CIN5..T2  FIN...3.  31.75
    CVA5..T2  OBJ       3.2555
    CVA5..T2  LC.5..T2  0.1
    CVA5..T2  C..5..T2  1
    CVA5..T2  FIN...3.  38.3
    CIN1..T3  OBJ       7.20725
    CIN1..T3  C..3..T3  1
    CIN1..T3  I..2..T3  -1
    CIN1..T3  I..1..T3  -1
    CIN1..T3  FIN...1.  31.75
    C..3..T3  C..5..T3  1
    C..3..T3  I..4..T3  -1
    C..3..T3  C..3..T3  -1
    C..3..T3  I..3..T3  -1
    CVA3..T3  OBJ       4.416
    CVA3..T3  C..3..T3  1
    CVA3..T3  FIN...2.  27.6
    C..5..T3  I..6..T3  -1
    C..5..T3  C..5..T3  -1
    C..5..T3  I..5..T3  -1
    CVA5..T3  OBJ       2.346
    CVA5..T3  C..5..T3  1
    CVA5..T3  FIN...3.  27.6
    CIN1..T4  OBJ       7.20725
    CIN1..T4  C..3..T4  1
    CIN1..T4  I..2..T4  -1
    CIN1..T4  I..1..T4  -1
    CIN1..T4  KM.1..T4  1
    CIN1..T4  KN.1..T4  -1
    CIN1..T4  FIN...1.  31.75
    CIN3..T4  OBJ       5.08
    CIN3..T4  C..3..T4  1
    CIN3..T4  KM.3..T4  1
    CIN3..T4  KN.3..T4  -1
    CIN3..T4  FIN...2.  31.75
    CVA3..T4  OBJ       6.128
    CVA3..T4  LC.3..T4  0.1
    CVA3..T4  C..3..T4  1
    CVA3..T4  FIN...2.  38.3
    C..4..T4  I..3..T4  -1
    C..4..T4  C..3..T4  -1
    C..4..T4  I..4..T4  -1
    C..4..T4  C..5..T4  1
    C..5..T4  I..6..T4  -1
    C..5..T4  C..5..T4  -1
    C..5..T4  I..5..T4  -1
    CIN5..T4  OBJ       2.69875
    CIN5..T4  C..5..T4  1
    CIN5..T4  KM.5..T4  1
    CIN5..T4  KN.5..T4  -1
    CIN5..T4  FIN...3.  31.75
    CVA5..T4  OBJ       3.2555
    CVA5..T4  LC.5..T4  0.1
    CVA5..T4  C..5..T4  1
    CVA5..T4  FIN...3.  38.3
    IP11..T1  OBJ       3
    IP11..T1  BP11..T1  -1
    IP11..T1  I..1..T1  1
    IP11..T1  BP12..T1  1
    IP21..T1  OBJ       3
    IP21..T1  BP21..T1  -1
    IP21..T1  I..1..T1  1
    IP21..T1  BP22..T1  1
    IP12..T1  OBJ       3
    IP12..T1  BP12..T1  -1
    IP12..T1  I..2..T1  1
    IP12..T1  BP13..T1  1
    IP22..T1  OBJ       3
    IP22..T1  BP22..T1  -1
    IP22..T1  I..2..T1  1
    IP22..T1  BP23..T1  1
    IP13..T1  OBJ       3
    IP13..T1  BP13..T1  -1
    IP13..T1  I..3..T1  1
    IP13..T1  BP14..T1  1
    IP23..T1  OBJ       3
    IP23..T1  BP23..T1  -1
    IP23..T1  I..3..T1  1
    IP23..T1  BP24..T1  1
    IP14..T1  OBJ       3
    IP14..T1  BP14..T1  -1
    IP14..T1  I..4..T1  1
    IP14..T1  BP15..T1  1
    IP24..T1  OBJ       3
    IP24..T1  BP24..T1  -1
    IP24..T1  I..4..T1  1
    IP24..T1  BP25..T1  1
    IP15..T1  OBJ       3
    IP15..T1  BP15..T1  -1
    IP15..T1  I..5..T1  1
    IP15..T1  BP16..T1  1
    IP25..T1  OBJ       3
    IP25..T1  BP25..T1  -1
    IP25..T1  I..5..T1  1
    IP25..T1  BP26..T1  1
    IP16..T1  OBJ       3
    IP16..T1  BP16..T1  -1
    IP16..T1  I..6..T1  1
    IP26..T1  OBJ       3
    IP26..T1  BP26..T1  -1
    IP26..T1  I..6..T1  1
    IP11..T2  OBJ       3
    IP11..T2  BP11..T2  -1
    IP11..T2  I..1..T2  1
    IP11..T2  BP12..T2  1
    IP21..T2  OBJ       3
    IP21..T2  BP21..T2  -1
    IP21..T2  I..1..T2  1
    IP21..T2  BP22..T2  1
    IP12..T2  OBJ       3
    IP12..T2  BP12..T2  -1
    IP12..T2  I..2..T2  1
    IP12..T2  BP13..T2  1
    IP22..T2  OBJ       3
    IP22..T2  BP22..T2  -1
    IP22..T2  I..2..T2  1
    IP22..T2  BP23..T2  1
    IP13..T2  OBJ       3
    IP13..T2  BP13..T2  -1
    IP13..T2  I..3..T2  1
    IP13..T2  BP14..T2  1
    IP23..T2  OBJ       3
    IP23..T2  BP23..T2  -1
    IP23..T2  I..3..T2  1
    IP23..T2  BP24..T2  1
    IP14..T2  OBJ       3
    IP14..T2  BP14..T2  -1
    IP14..T2  I..4..T2  1
    IP14..T2  BP15..T2  1
    IP24..T2  OBJ       3
    IP24..T2  BP24..T2  -1
    IP24..T2  I..4..T2  1
    IP24..T2  BP25..T2  1
    IP15..T2  OBJ       3
    IP15..T2  BP15..T2  -1
    IP15..T2  I..5..T2  1
    IP15..T2  BP16..T2  1
    IP25..T2  OBJ       3
    IP25..T2  BP25..T2  -1
    IP25..T2  I..5..T2  1
    IP25..T2  BP26..T2  1
    IP16..T2  OBJ       3
    IP16..T2  BP16..T2  -1
    IP16..T2  I..6..T2  1
    IP26..T2  OBJ       3
    IP26..T2  BP26..T2  -1
    IP26..T2  I..6..T2  1
    IP11..T3  OBJ       3
    IP11..T3  BP11..T3  -1
    IP11..T3  I..1..T3  1
    IP11..T3  BP12..T3  1
    IP21..T3  OBJ       3
    IP21..T3  BP21..T3  -1
    IP21..T3  I..1..T3  1
    IP21..T3  BP22..T3  1
    IP12..T3  OBJ       3
    IP12..T3  BP12..T3  -1
    IP12..T3  I..2..T3  1
    IP12..T3  BP13..T3  1
    IP22..T3  OBJ       3
    IP22..T3  BP22..T3  -1
    IP22..T3  I..2..T3  1
    IP22..T3  BP23..T3  1
    IP13..T3  OBJ       3
    IP13..T3  BP13..T3  -1
    IP13..T3  I..3..T3  1
    IP13..T3  BP14..T3  1
    IP23..T3  OBJ       3
    IP23..T3  BP23..T3  -1
    IP23..T3  I..3..T3  1
    IP23..T3  BP24..T3  1
    IP14..T3  OBJ       3
    IP14..T3  BP14..T3  -1
    IP14..T3  I..4..T3  1
    IP14..T3  BP15..T3  1
    IP24..T3  OBJ       3
    IP24..T3  BP24..T3  -1
    IP24..T3  I..4..T3  1
    IP24..T3  BP25..T3  1
    IP15..T3  OBJ       3
    IP15..T3  BP15..T3  -1
    IP15..T3  I..5..T3  1
    IP15..T3  BP16..T3  1
    IP25..T3  OBJ       3
    IP25..T3  BP25..T3  -1
    IP25..T3  I..5..T3  1
    IP25..T3  BP26..T3  1
    IP16..T3  OBJ       3
    IP16..T3  BP16..T3  -1
    IP16..T3  I..6..T3  1
    IP26..T3  OBJ       3
    IP26..T3  BP26..T3  -1
    IP26..T3  I..6..T3  1
    IP11..T4  OBJ       3
    IP11..T4  BP11..T4  -1
    IP11..T4  I..1..T4  1
    IP11..T4  BP12..T4  1
    IP21..T4  OBJ       3
    IP21..T4  BP21..T4  -1
    IP21..T4  I..1..T4  1
    IP21..T4  BP22..T4  1
    IP12..T4  OBJ       3
    IP12..T4  BP12..T4  -1
    IP12..T4  I..2..T4  1
    IP12..T4  BP13..T4  1
    IP22..T4  OBJ       3
    IP22..T4  BP22..T4  -1
    IP22..T4  I..2..T4  1
    IP22..T4  BP23..T4  1
    IP13..T4  OBJ       3
    IP13..T4  BP13..T4  -1
    IP13..T4  I..3..T4  1
    IP13..T4  BP14..T4  1
    IP23..T4  OBJ       3
    IP23..T4  BP23..T4  -1
    IP23..T4  I..3..T4  1
    IP23..T4  BP24..T4  1
    IP14..T4  OBJ       3
    IP14..T4  BP14..T4  -1
    IP14..T4  I..4..T4  1
    IP14..T4  BP15..T4  1
    IP24..T4  OBJ       3
    IP24..T4  BP24..T4  -1
    IP24..T4  I..4..T4  1
    IP24..T4  BP25..T4  1
    IP15..T4  OBJ       3
    IP15..T4  BP15..T4  -1
    IP15..T4  I..5..T4  1
    IP15..T4  BP16..T4  1
    IP25..T4  OBJ       3
    IP25..T4  BP25..T4  -1
    IP25..T4  I..5..T4  1
    IP25..T4  BP26..T4  1
    IP16..T4  OBJ       3
    IP16..T4  BP16..T4  -1
    IP16..T4  I..6..T4  1
    IP26..T4  OBJ       3
    IP26..T4  BP26..T4  -1
    IP26..T4  I..6..T4  1
    KIN1..T2  OBJ       68.1
    KIN1..T2  LY....T2  1
    KIN1..T2  KM.1..T2  -15
    KIN1..T2  KN.1..T2  3
    KIN1..T2  FIN...1.  300
    KIN1..T2  TYEAR1T2  -25
    KIN1..T2  TYEAR2T2  -25
    KIN1..T2  LC.3..T2  -1
    KIN1..T2  TYEAR3T2  -25
    KIN1..T2  LC.5..T2  -1
    KIN3..T2  OBJ       48
    KIN3..T2  LY....T2  1
    KIN3..T2  KM.3..T2  -15
    KIN3..T2  KN.3..T2  3
    KIN3..T2  FIN...2.  300
    KIN3..T2  TYEAR2T2  -25
    KIN3..T2  TYEAR3T2  -25
    KIN3..T2  LC.5..T2  -1
    KIN5..T2  OBJ       25.5
    KIN5..T2  LY....T2  1
    KIN5..T2  KM.5..T2  -15
    KIN5..T2  KN.5..T2  3
    KIN5..T2  FIN...3.  300
    KIN5..T2  TYEAR3T2  -25
    KIN1..T4  OBJ       68.1
    KIN1..T4  LY....T4  1
    KIN1..T4  KM.1..T4  -15
    KIN1..T4  KN.1..T4  3
    KIN1..T4  FIN...1.  300
    KIN1..T4  TYEAR1T4  -25
    KIN1..T4  TYEAR2T4  -25
    KIN1..T4  LC.3..T4  -1
    KIN1..T4  TYEAR3T4  -25
    KIN1..T4  LC.5..T4  -1
    KIN3..T4  OBJ       48
    KIN3..T4  LY....T4  1
    KIN3..T4  KM.3..T4  -15
    KIN3..T4  KN.3..T4  3
    KIN3..T4  FIN...2.  300
    KIN3..T4  TYEAR2T4  -25
    KIN3..T4  TYEAR3T4  -25
    KIN3..T4  LC.5..T4  -1
    KIN5..T4  OBJ       25.5
    KIN5..T4  LY....T4  1
    KIN5..T4  KM.5..T4  -15
    KIN5..T4  KN.5..T4  3
    KIN5..T4  FIN...3.  300
    KIN5..T4  TYEAR3T4  -25
    PEN...1.  OBJ       100
    PEN...1.  FIN...1.  -1
    PEN...2.  OBJ       100
    PEN...2.  FIN...2.  -1
    PEN...3.  OBJ       100
    PEN...3.  FIN...3.  -1
    RBU1S1T1  OBJ       10.55
    RBU1S1T1  TB.1S1T1  -1
    RBU1S2T1  OBJ       17
    RBU1S2T1  TB.1S2T1  -1
    RPA1S1T1  OBJ       13.85
    RPA1S1T1  TB.1S1T1  -1
    RPA1S2T1  OBJ       17.5
    RPA1S2T1  TB.1S2T1  -1
    RBU2S1T1  OBJ       10.55
    RBU2S1T1  TB.2S1T1  -1
    RBU2S2T1  OBJ       17
    RBU2S2T1  TB.2S2T1  -1
    RPA2S1T1  OBJ       13.85
    RPA2S1T1  TB.2S1T1  -1
    RPA2S2T1  OBJ       17.5
    RPA2S2T1  TB.2S2T1  -1
    RBU3S1T1  OBJ       10.55
    RBU3S1T1  TB.3S1T1  -1
    RBU3S2T1  OBJ       17
    RBU3S2T1  TB.3S2T1  -1
    RPA3S1T1  OBJ       13.85
    RPA3S1T1  TB.3S1T1  -1
    RPA3S2T1  OBJ       17.5
    RPA3S2T1  TB.3S2T1  -1
    RBU4S1T1  OBJ       10.55
    RBU4S1T1  TB.4S1T1  -1
    RBU4S2T1  OBJ       17
    RBU4S2T1  TB.4S2T1  -1
    RPA4S1T1  OBJ       13.85
    RPA4S1T1  TB.4S1T1  -1
    RPA4S2T1  OBJ       17.5
    RPA4S2T1  TB.4S2T1  -1
    RBU5S1T1  OBJ       10.55
    RBU5S1T1  TB.5S1T1  -1
    RBU5S2T1  OBJ       17
    RBU5S2T1  TB.5S2T1  -1
    RPA5S1T1  OBJ       13.85
    RPA5S1T1  TB.5S1T1  -1
    RPA5S2T1  OBJ       17.5
    RPA5S2T1  TB.5S2T1  -1
    RBU6S1T1  OBJ       10.55
    RBU6S1T1  TB.6S1T1  -1
    RBU6S2T1  OBJ       17
    RBU6S2T1  TB.6S2T1  -1
    RPA6S1T1  OBJ       13.85
    RPA6S1T1  TB.6S1T1  -1
    RPA6S2T1  OBJ       17.5
    RPA6S2T1  TB.6S2T1  -1
    RBU1S1T2  OBJ       13.85
    RBU1S1T2  TB.1S1T2  -1
    RBU1S2T2  OBJ       16.55
    RBU1S2T2  TB.1S2T2  -1
    RPA1S1T2  OBJ       16.3
    RPA1S1T2  TB.1S1T2  -1
    RPA1S2T2  OBJ       17
    RPA1S2T2  TB.1S2T2  -1
    RBU2S1T2  OBJ       13.85
    RBU2S1T2  TB.2S1T2  -1
    RBU2S2T2  OBJ       16.55
    RBU2S2T2  TB.2S2T2  -1
    RPA2S1T2  OBJ       16.3
    RPA2S1T2  TB.2S1T2  -1
    RPA2S2T2  OBJ       17
    RPA2S2T2  TB.2S2T2  -1
    RBU3S1T2  OBJ       13.85
    RBU3S1T2  TB.3S1T2  -1
    RBU3S2T2  OBJ       16.55
    RBU3S2T2  TB.3S2T2  -1
    RPA3S1T2  OBJ       16.3
    RPA3S1T2  TB.3S1T2  -1
    RPA3S2T2  OBJ       17
    RPA3S2T2  TB.3S2T2  -1
    RBU4S1T2  OBJ       13.85
    RBU4S1T2  TB.4S1T2  -1
    RBU4S2T2  OBJ       16.55
    RBU4S2T2  TB.4S2T2  -1
    RPA4S1T2  OBJ       16.3
    RPA4S1T2  TB.4S1T2  -1
    RPA4S2T2  OBJ       17
    RPA4S2T2  TB.4S2T2  -1
    RBU5S1T2  OBJ       13.85
    RBU5S1T2  TB.5S1T2  -1
    RBU5S2T2  OBJ       16.55
    RBU5S2T2  TB.5S2T2  -1
    RPA5S1T2  OBJ       16.3
    RPA5S1T2  TB.5S1T2  -1
    RPA5S2T2  OBJ       17
    RPA5S2T2  TB.5S2T2  -1
    RBU6S1T2  OBJ       13.85
    RBU6S1T2  TB.6S1T2  -1
    RBU6S2T2  OBJ       16.55
    RBU6S2T2  TB.6S2T2  -1
    RPA6S1T2  OBJ       16.3
    RPA6S1T2  TB.6S1T2  -1
    RPA6S2T2  OBJ       17
    RPA6S2T2  TB.6S2T2  -1
    RBU2S2T3  OBJ       14.55
    RBU2S2T3  TB.2S2T3  -1
    RPA2S2T3  OBJ       15
    RPA2S2T3  TB.2S2T3  -1
    RBU3S1T3  OBJ       13.85
    RBU3S1T3  TB.3S1T3  -1
    RBU3S2T3  OBJ       14.55
    RBU3S2T3  TB.3S2T3  -1
    RPA3S1T3  OBJ       16.3
    RPA3S1T3  TB.3S1T3  -1
    RPA3S2T3  OBJ       15
    RPA3S2T3  TB.3S2T3  -1
    RBU4S1T3  OBJ       13.85
    RBU4S1T3  TB.4S1T3  -1
    RBU4S2T3  OBJ       14.55
    RBU4S2T3  TB.4S2T3  -1
    RPA4S1T3  OBJ       16.3
    RPA4S1T3  TB.4S1T3  -1
    RPA4S2T3  OBJ       15
    RPA4S2T3  TB.4S2T3  -1
    RBU5S2T3  OBJ       14.55
    RBU5S2T3  TB.5S2T3  -1
    RPA5S2T3  OBJ       15
    RPA5S2T3  TB.5S2T3  -1
    RBU6S2T3  OBJ       14.55
    RBU6S2T3  TB.6S2T3  -1
    RPA6S2T3  OBJ       15
    RPA6S2T3  TB.6S2T3  -1
    RBU1S1T4  OBJ       13.85
    RBU1S1T4  TB.1S1T4  -1
    RBU1S2T4  OBJ       13.85
    RBU1S2T4  TB.1S2T4  -1
    RPA1S1T4  OBJ       16.3
    RPA1S1T4  TB.1S1T4  -1
    RPA1S2T4  OBJ       14.55
    RPA1S2T4  TB.1S2T4  -1
    RBU2S1T4  OBJ       13.85
    RBU2S1T4  TB.2S1T4  -1
    RBU2S2T4  OBJ       13.85
    RBU2S2T4  TB.2S2T4  -1
    RPA2S1T4  OBJ       16.3
    RPA2S1T4  TB.2S1T4  -1
    RPA2S2T4  OBJ       14.55
    RPA2S2T4  TB.2S2T4  -1
    RBU3S1T4  OBJ       13.85
    RBU3S1T4  TB.3S1T4  -1
    RBU3S2T4  OBJ       13.85
    RBU3S2T4  TB.3S2T4  -1
    RPA3S1T4  OBJ       16.3
    RPA3S1T4  TB.3S1T4  -1
    RPA3S2T4  OBJ       14.55
    RPA3S2T4  TB.3S2T4  -1
    RBU4S1T4  OBJ       13.85
    RBU4S1T4  TB.4S1T4  -1
    RBU4S2T4  OBJ       13.85
    RBU4S2T4  TB.4S2T4  -1
    RPA4S1T4  OBJ       16.3
    RPA4S1T4  TB.4S1T4  -1
    RPA4S2T4  OBJ       14.55
    RPA4S2T4  TB.4S2T4  -1
    RBU5S1T4  OBJ       13.85
    RBU5S1T4  TB.5S1T4  -1
    RBU5S2T4  OBJ       13.85
    RBU5S2T4  TB.5S2T4  -1
    RPA5S1T4  OBJ       16.3
    RPA5S1T4  TB.5S1T4  -1
    RPA5S2T4  OBJ       14.55
    RPA5S2T4  TB.5S2T4  -1
    RBU6S1T4  OBJ       13.85
    RBU6S1T4  TB.6S1T4  -1
    RBU6S2T4  OBJ       13.85
    RBU6S2T4  TB.6S2T4  -1
    RPA6S1T4  OBJ       16.3
    RPA6S1T4  TB.6S1T4  -1
    RPA6S2T4  OBJ       14.55
    RPA6S2T4  TB.6S2T4  -1
    ZP11S1T1  BP11..S1  1
    ZP11S1T1  BP11..T1  1
    ZP11S1T1  TB.1S1T1  1
    ZP11S2T1  BP11..S2  1
    ZP11S2T1  BP11..T1  1
    ZP11S2T1  TB.1S2T1  1
    ZP21S1T1  BP11..S1  1
    ZP21S1T1  BP21..T1  1
    ZP21S1T1  TB.1S1T1  1
    ZP21S2T1  BP11..S2  1
    ZP21S2T1  BP21..T1  1
    ZP21S2T1  TB.1S2T1  1
    ZP12S1T1  BP12..S1  -1
    ZP12S1T1  BP12..T1  1
    ZP12S1T1  TB.2S1T1  1
    ZP12S2T1  BP12..S2  -1
    ZP12S2T1  BP12..T1  1
    ZP12S2T1  TB.2S2T1  1
    ZP22S1T1  BP12..S1  -1
    ZP22S1T1  BP22..T1  1
    ZP22S1T1  TB.2S1T1  1
    ZP22S2T1  BP12..S2  -1
    ZP22S2T1  BP22..T1  1
    ZP22S2T1  TB.2S2T1  1
    ZP13S1T1  BP13..S1  1
    ZP13S1T1  BP13..T1  1
    ZP13S1T1  TB.3S1T1  1
    ZP13S2T1  BP13..S2  1
    ZP13S2T1  BP13..T1  1
    ZP13S2T1  TB.3S2T1  1
    ZP23S1T1  BP13..S1  1
    ZP23S1T1  BP23..T1  1
    ZP23S1T1  TB.3S1T1  1
    ZP23S2T1  BP13..S2  1
    ZP23S2T1  BP23..T1  1
    ZP23S2T1  TB.3S2T1  1
    ZP14S1T1  BP14..S1  -1
    ZP14S1T1  BP14..T1  1
    ZP14S1T1  TB.4S1T1  1
    ZP14S2T1  BP14..S2  -1
    ZP14S2T1  BP14..T1  1
    ZP14S2T1  TB.4S2T1  1
    ZP24S1T1  BP14..S1  -1
    ZP24S1T1  BP24..T1  1
    ZP24S1T1  TB.4S1T1  1
    ZP24S2T1  BP14..S2  -1
    ZP24S2T1  BP24..T1  1
    ZP24S2T1  TB.4S2T1  1
    ZP15S1T1  BP15..S1  1
    ZP15S1T1  BP15..T1  1
    ZP15S1T1  TB.5S1T1  1
    ZP15S2T1  BP15..S2  1
    ZP15S2T1  BP15..T1  1
    ZP15S2T1  TB.5S2T1  1
    ZP25S1T1  BP15..S1  1
    ZP25S1T1  BP25..T1  1
    ZP25S1T1  TB.5S1T1  1
    ZP25S2T1  BP15..S2  1
    ZP25S2T1  BP25..T1  1
    ZP25S2T1  TB.5S2T1  1
    ZP16S1T1  BP16..S1  -1
    ZP16S1T1  BP16..T1  1
    ZP16S1T1  TB.6S1T1  1
    ZP16S2T1  BP16..S2  -1
    ZP16S2T1  BP16..T1  1
    ZP16S2T1  TB.6S2T1  1
    ZP26S1T1  BP16..S1  -1
    ZP26S1T1  BP26..T1  1
    ZP26S1T1  TB.6S1T1  1
    ZP26S2T1  BP16..S2  -1
    ZP26S2T1  BP26..T1  1
    ZP26S2T1  TB.6S2T1  1
    ZP11S1T2  BP11..S1  1
    ZP11S1T2  BP11..T2  1
    ZP11S1T2  TB.1S1T2  1
    ZP11S2T2  BP11..S2  1
    ZP11S2T2  BP11..T2  1
    ZP11S2T2  TB.1S2T2  1
    ZP21S1T2  BP11..S1  1
    ZP21S1T2  BP21..T2  1
    ZP21S1T2  TB.1S1T2  1
    ZP21S2T2  BP11..S2  1
    ZP21S2T2  BP21..T2  1
    ZP21S2T2  TB.1S2T2  1
    ZP12S1T2  BP12..S1  -1
    ZP12S1T2  BP12..T2  1
    ZP12S1T2  TB.2S1T2  1
    ZP12S2T2  BP12..S2  -1
    ZP12S2T2  BP12..T2  1
    ZP12S2T2  TB.2S2T2  1
    ZP22S1T2  BP12..S1  -1
    ZP22S1T2  BP22..T2  1
    ZP22S1T2  TB.2S1T2  1
    ZP22S2T2  BP12..S2  -1
    ZP22S2T2  BP22..T2  1
    ZP22S2T2  TB.2S2T2  1
    ZP13S1T2  BP13..S1  1
    ZP13S1T2  BP13..T2  1
    ZP13S1T2  TB.3S1T2  1
    ZP13S2T2  BP13..S2  1
    ZP13S2T2  BP13..T2  1
    ZP13S2T2  TB.3S2T2  1
    ZP23S1T2  BP13..S1  1
    ZP23S1T2  BP23..T2  1
    ZP23S1T2  TB.3S1T2  1
    ZP23S2T2  BP13..S2  1
    ZP23S2T2  BP23..T2  1
    ZP23S2T2  TB.3S2T2  1
    ZP14S1T2  BP14..S1  -1
    ZP14S1T2  BP14..T2  1
    ZP14S1T2  TB.4S1T2  1
    ZP14S2T2  BP14..S2  -1
    ZP14S2T2  BP14..T2  1
    ZP14S2T2  TB.4S2T2  1
    ZP24S1T2  BP14..S1  -1
    ZP24S1T2  BP24..T2  1
    ZP24S1T2  TB.4S1T2  1
    ZP24S2T2  BP14..S2  -1
    ZP24S2T2  BP24..T2  1
    ZP24S2T2  TB.4S2T2  1
    ZP15S1T2  BP15..S1  1
    ZP15S1T2  BP15..T2  1
    ZP15S1T2  TB.5S1T2  1
    ZP15S2T2  BP15..S2  1
    ZP15S2T2  BP15..T2  1
    ZP15S2T2  TB.5S2T2  1
    ZP25S1T2  BP15..S1  1
    ZP25S1T2  BP25..T2  1
    ZP25S1T2  TB.5S1T2  1
    ZP25S2T2  BP15..S2  1
    ZP25S2T2  BP25..T2  1
    ZP25S2T2  TB.5S2T2  1
    ZP16S1T2  BP16..S1  -1
    ZP16S1T2  BP16..T2  1
    ZP16S1T2  TB.6S1T2  1
    ZP16S2T2  BP16..S2  -1
    ZP16S2T2  BP16..T2  1
    ZP16S2T2  TB.6S2T2  1
    ZP26S1T2  BP16..S1  -1
    ZP26S1T2  BP26..T2  1
    ZP26S1T2  TB.6S1T2  1
    ZP26S2T2  BP16..S2  -1
    ZP26S2T2  BP26..T2  1
    ZP26S2T2  TB.6S2T2  1
    ZP11S1T3  OBJ       16.3
    ZP11S1T3  BP11..S1  1
    ZP11S1T3  BP11..T3  1
    ZP11S2T3  OBJ       15
    ZP11S2T3  BP11..S2  1
    ZP11S2T3  BP11..T3  1
    ZP21S1T3  OBJ       16.3
    ZP21S1T3  BP11..S1  1
    ZP21S1T3  BP21..T3  1
    ZP21S2T3  OBJ       15
    ZP21S2T3  BP11..S2  1
    ZP21S2T3  BP21..T3  1
    ZP12S1T3  OBJ       16.3
    ZP12S1T3  BP12..S1  -1
    ZP12S1T3  BP12..T3  1
    ZP12S2T3  BP12..S2  -1
    ZP12S2T3  BP12..T3  1
    ZP12S2T3  TB.2S2T3  1
    ZP22S1T3  OBJ       16.3
    ZP22S1T3  BP12..S1  -1
    ZP22S1T3  BP22..T3  1
    ZP22S2T3  BP12..S2  -1
    ZP22S2T3  BP22..T3  1
    ZP22S2T3  TB.2S2T3  1
    ZP13S1T3  BP13..S1  1
    ZP13S1T3  BP13..T3  1
    ZP13S1T3  TB.3S1T3  1
    ZP13S2T3  BP13..S2  1
    ZP13S2T3  BP13..T3  1
    ZP13S2T3  TB.3S2T3  1
    ZP23S1T3  BP13..S1  1
    ZP23S1T3  BP23..T3  1
    ZP23S1T3  TB.3S1T3  1
    ZP23S2T3  BP13..S2  1
    ZP23S2T3  BP23..T3  1
    ZP23S2T3  TB.3S2T3  1
    ZP14S1T3  BP14..S1  -1
    ZP14S1T3  BP14..T3  1
    ZP14S1T3  TB.4S1T3  1
    ZP14S2T3  BP14..S2  -1
    ZP14S2T3  BP14..T3  1
    ZP14S2T3  TB.4S2T3  1
    ZP24S1T3  BP14..S1  -1
    ZP24S1T3  BP24..T3  1
    ZP24S1T3  TB.4S1T3  1
    ZP24S2T3  BP14..S2  -1
    ZP24S2T3  BP24..T3  1
    ZP24S2T3  TB.4S2T3  1
    ZP15S1T3  OBJ       16.3
    ZP15S1T3  BP15..S1  1
    ZP15S1T3  BP15..T3  1
    ZP15S2T3  BP15..S2  1
    ZP15S2T3  BP15..T3  1
    ZP15S2T3  TB.5S2T3  1
    ZP25S1T3  OBJ       16.3
    ZP25S1T3  BP15..S1  1
    ZP25S1T3  BP25..T3  1
    ZP25S2T3  BP15..S2  1
    ZP25S2T3  BP25..T3  1
    ZP25S2T3  TB.5S2T3  1
    ZP16S1T3  OBJ       16.3
    ZP16S1T3  BP16..S1  -1
    ZP16S1T3  BP16..T3  1
    ZP16S2T3  BP16..S2  -1
    ZP16S2T3  BP16..T3  1
    ZP16S2T3  TB.6S2T3  1
    ZP26S1T3  OBJ       16.3
    ZP26S1T3  BP16..S1  -1
    ZP26S1T3  BP26..T3  1
    ZP26S2T3  BP16..S2  -1
    ZP26S2T3  BP26..T3  1
    ZP26S2T3  TB.6S2T3  1
    ZP11S1T4  BP11..S1  1
    ZP11S1T4  BP11..T4  1
    ZP11S1T4  TB.1S1T4  1
    ZP11S2T4  BP11..S2  1
    ZP11S2T4  BP11..T4  1
    ZP11S2T4  TB.1S2T4  1
    ZP21S1T4  BP11..S1  1
    ZP21S1T4  BP21..T4  1
    ZP21S1T4  TB.1S1T4  1
    ZP21S2T4  BP11..S2  1
    ZP21S2T4  BP21..T4  1
    ZP21S2T4  TB.1S2T4  1
    ZP12S1T4  BP12..S1  -1
    ZP12S1T4  BP12..T4  1
    ZP12S1T4  TB.2S1T4  1
    ZP12S2T4  BP12..S2  -1
    ZP12S2T4  BP12..T4  1
    ZP12S2T4  TB.2S2T4  1
    ZP22S1T4  BP12..S1  -1
    ZP22S1T4  BP22..T4  1
    ZP22S1T4  TB.2S1T4  1
    ZP22S2T4  BP12..S2  -1
    ZP22S2T4  BP22..T4  1
    ZP22S2T4  TB.2S2T4  1
    ZP13S1T4  BP13..S1  1
    ZP13S1T4  BP13..T4  1
    ZP13S1T4  TB.3S1T4  1
    ZP13S2T4  BP13..S2  1
    ZP13S2T4  BP13..T4  1
    ZP13S2T4  TB.3S2T4  1
    ZP23S1T4  BP13..S1  1
    ZP23S1T4  BP23..T4  1
    ZP23S1T4  TB.3S1T4  1
    ZP23S2T4  BP13..S2  1
    ZP23S2T4  BP23..T4  1
    ZP23S2T4  TB.3S2T4  1
    ZP14S1T4  BP14..S1  -1
    ZP14S1T4  BP14..T4  1
    ZP14S1T4  TB.4S1T4  1
    ZP14S2T4  BP14..S2  -1
    ZP14S2T4  BP14..T4  1
    ZP14S2T4  TB.4S2T4  1
    ZP24S1T4  BP14..S1  -1
    ZP24S1T4  BP24..T4  1
    ZP24S1T4  TB.4S1T4  1
    ZP24S2T4  BP14..S2  -1
    ZP24S2T4  BP24..T4  1
    ZP24S2T4  TB.4S2T4  1
    ZP15S1T4  BP15..S1  1
    ZP15S1T4  BP15..T4  1
    ZP15S1T4  TB.5S1T4  1
    ZP15S2T4  BP15..S2  1
    ZP15S2T4  BP15..T4  1
    ZP15S2T4  TB.5S2T4  1
    ZP25S1T4  BP15..S1  1
    ZP25S1T4  BP25..T4  1
    ZP25S1T4  TB.5S1T4  1
    ZP25S2T4  BP15..S2  1
    ZP25S2T4  BP25..T4  1
    ZP25S2T4  TB.5S2T4  1
    ZP16S1T4  BP16..S1  -1
    ZP16S1T4  BP16..T4  1
    ZP16S1T4  TB.6S1T4  1
    ZP16S2T4  BP16..S2  -1
    ZP16S2T4  BP16..T4  1
    ZP16S2T4  TB.6S2T4  1
    ZP26S1T4  BP16..S1  -1
    ZP26S1T4  BP26..T4  1
    ZP26S1T4  TB.6S1T4  1
    ZP26S2T4  BP16..S2  -1
    ZP26S2T4  BP26..T4  1
    ZP26S2T4  TB.6S2T4  1
    ZP22S102  OBJ       24.4
    ZP22S102  BP12..S1  -1
    ZP24S102  OBJ       24.4
    ZP24S102  BP14..S1  -1
    ZP26S102  OBJ       24.4
    ZP26S102  BP16..S1  -1
    ZP12S203  OBJ       26.25
    ZP12S203  BP12..S2  -1
    ZP14S203  OBJ       26.25
    ZP14S203  BP14..S2  -1
    ZP16S203  OBJ       26.25
    ZP16S203  BP16..S2  -1
    ZP11T104  OBJ       7
    ZP11T104  BP11..T1  -1
    ZP11T104  TYEAR1T1  1
    ZP21T104  OBJ       7
    ZP21T104  BP21..T1  -1
    ZP21T104  TYEAR1T1  1
    ZP12T104  OBJ       7
    ZP12T104  BP12..T1  -1
    ZP12T104  TYEAR1T1  1
    ZP22T104  OBJ       7
    ZP22T104  BP22..T1  -1
    ZP22T104  TYEAR1T1  1
    ZP13T104  OBJ       7
    ZP13T104  BP13..T1  -1
    ZP13T104  TYEAR2T1  1
    ZP23T104  OBJ       7
    ZP23T104  BP23..T1  -1
    ZP23T104  TYEAR2T1  1
    ZP14T104  OBJ       7
    ZP14T104  BP14..T1  -1
    ZP14T104  TYEAR2T1  1
    ZP24T104  OBJ       7
    ZP24T104  BP24..T1  -1
    ZP24T104  TYEAR2T1  1
    ZP15T104  OBJ       7
    ZP15T104  BP15..T1  -1
    ZP15T104  TYEAR3T1  1
    ZP25T104  OBJ       7
    ZP25T104  BP25..T1  -1
    ZP25T104  TYEAR3T1  1
    ZP16T104  OBJ       7
    ZP16T104  BP16..T1  -1
    ZP16T104  TYEAR3T1  1
    ZP26T104  OBJ       7
    ZP26T104  BP26..T1  -1
    ZP26T104  TYEAR3T1  1
    ZP11T405  OBJ       6.85
    ZP11T405  BP11..T4  -1
    ZP11T405  TYEAR1T4  1
    ZP21T305  OBJ       6.1
    ZP21T305  BP21..T3  -1
    ZP21T305  TYEAR1T3  1
    ZP21T405  OBJ       6.85
    ZP21T405  BP21..T4  -1
    ZP21T405  TYEAR1T4  1
    ZP12T305  OBJ       6.1
    ZP12T305  BP12..T3  -1
    ZP12T305  TYEAR1T3  1
    ZP12T405  OBJ       6.85
    ZP12T405  BP12..T4  -1
    ZP12T405  TYEAR1T4  1
    ZP22T405  OBJ       6.85
    ZP22T405  BP22..T4  -1
    ZP22T405  TYEAR1T4  1
    ZP13T305  OBJ       6.1
    ZP13T305  BP13..T3  -1
    ZP13T305  TYEAR2T3  1
    ZP13T405  OBJ       6.85
    ZP13T405  BP13..T4  -1
    ZP13T405  TYEAR2T4  1
    ZP23T305  OBJ       6.1
    ZP23T305  BP23..T3  -1
    ZP23T305  TYEAR2T3  1
    ZP23T405  OBJ       6.85
    ZP23T405  BP23..T4  -1
    ZP23T405  TYEAR2T4  1
    ZP14T405  OBJ       6.85
    ZP14T405  BP14..T4  -1
    ZP14T405  TYEAR2T4  1
    ZP24T405  OBJ       6.85
    ZP24T405  BP24..T4  -1
    ZP24T405  TYEAR2T4  1
    ZP15T305  OBJ       6.1
    ZP15T305  BP15..T3  -1
    ZP15T305  TYEAR3T3  1
    ZP15T405  OBJ       6.85
    ZP15T405  BP15..T4  -1
    ZP15T405  TYEAR3T4  1
    ZP25T405  OBJ       6.85
    ZP25T405  BP25..T4  -1
    ZP25T405  TYEAR3T4  1
    ZP16T405  OBJ       6.85
    ZP16T405  BP16..T4  -1
    ZP16T405  TYEAR3T4  1
    ZP26T405  OBJ       6.85
    ZP26T405  BP26..T4  -1
    ZP26T405  TYEAR3T4  1
    ZP11T206  OBJ       5.75
    ZP11T206  BP11..T2  -1
    ZP11T206  TYEAR1T2  1
    ZP21T206  OBJ       5.75
    ZP21T206  BP21..T2  -1
    ZP21T206  TYEAR1T2  1
    ZP12T206  OBJ       5.75
    ZP12T206  BP12..T2  -1
    ZP12T206  TYEAR1T2  1
    ZP22T206  OBJ       5.75
    ZP22T206  BP22..T2  -1
    ZP22T206  TYEAR1T2  1
    ZP13T206  OBJ       5.75
    ZP13T206  BP13..T2  -1
    ZP13T206  TYEAR2T2  1
    ZP23T206  OBJ       5.75
    ZP23T206  BP23..T2  -1
    ZP23T206  TYEAR2T2  1
    ZP14T206  OBJ       5.75
    ZP14T206  BP14..T2  -1
    ZP14T206  TYEAR2T2  1
    ZP24T206  OBJ       5.75
    ZP24T206  BP24..T2  -1
    ZP24T206  TYEAR2T2  1
    ZP15T206  OBJ       5.75
    ZP15T206  BP15..T2  -1
    ZP15T206  TYEAR3T2  1
    ZP25T206  OBJ       5.75
    ZP25T206  BP25..T2  -1
    ZP25T206  TYEAR3T2  1
    ZP16T206  OBJ       5.75
    ZP16T206  BP16..T2  -1
    ZP16T206  TYEAR3T2  1
    ZP26T206  OBJ       5.75
    ZP26T206  BP26..T2  -1
    ZP26T206  TYEAR3T2  1
    ZP11T309  OBJ       6.1
    ZP11T309  BP11..T3  -1
    ZP11T309  TYEAR1T3  1
    ZP22T309  OBJ       6.1
    ZP22T309  BP22..T3  -1
    ZP22T309  TYEAR1T3  1
    ZP14T309  OBJ       6.1
    ZP14T309  BP14..T3  -1
    ZP14T309  TYEAR2T3  1
    ZP24T309  OBJ       6.1
    ZP24T309  BP24..T3  -1
    ZP24T309  TYEAR2T3  1
    ZP25T309  OBJ       6.1
    ZP25T309  BP25..T3  -1
    ZP25T309  TYEAR3T3  1
    ZP16T309  OBJ       6.1
    ZP16T309  BP16..T3  -1
    ZP16T309  TYEAR3T3  1
    ZP26T309  OBJ       6.1
    ZP26T309  BP26..T3  -1
    ZP26T309  TYEAR3T3  1
RHS
    RHS1      OBJ       -171.51
    RHS1      BP11..S1  200
    RHS1      BP13..S1  200
    RHS1      BP15..S1  200
    RHS1      BP11..S2  200
    RHS1      BP13..S2  200
    RHS1      BP15..S2  200
    RHS1      FIN...1.  900
    RHS1      FIN...2.  1393
    RHS1      FIN...3.  1286
    RHS1      LY....T2  1
    RHS1      LY....T4  1
    RHS1      TYEAR1T1  25
    RHS1      TYEAR2T1  25
    RHS1      TYEAR3T1  25
    RHS1      TYEAR1T3  25
    RHS1      TYEAR2T3  25
    RHS1      TYEAR3T3  25
BOUNDS
 UP BND1      A..2X1S1  13
 UP BND1      A..2X2S1  10
 UP BND1      A..2X3S1  177
 UP BND1      A..4X1S1  13
 UP BND1      A..4X2S1  10
 UP BND1      A..4X3S1  177
 UP BND1      A..6X1S1  13
 UP BND1      A..6X2S1  10
 UP BND1      A..6X3S1  177
 UP BND1      A..2X1S2  13
 UP BND1      A..2X2S2  10
 UP BND1      A..2X3S2  177
 UP BND1      A..4X1S2  13
 UP BND1      A..4X2S2  10
 UP BND1      A..4X3S2  177
 UP BND1      A..6X1S2  13
 UP BND1      A..6X2S2  10
 UP BND1      A..6X3S2  177
 LO BND1      CIN1..T1  3
 UP BND1      CIN1..T1  10.011
 LO BND1      C..3..T1  2.9960000000000009e+00
 UP BND1      C..3..T1  10
 LO BND1      C..5..T1  1.997
 UP BND1      C..5..T1  15
 LO BND1      CVA5..T1  2
 UP BND1      CVA5..T1  10
 UP BND1      CIN1..T2  15.016
 UP BND1      CIN3..T2  15.016
 UP BND1      CVA3..T2  10.011
 UP BND1      CIN5..T2  15.016
 UP BND1      CVA5..T2  10
 LO BND1      CIN1..T3  3
 UP BND1      CIN1..T3  8.009
 LO BND1      C..3..T3  4.994
 UP BND1      C..3..T3  10
 LO BND1      CVA3..T3  2
 UP BND1      CVA3..T3  7.008
 LO BND1      C..5..T3  6.992
 UP BND1      C..5..T3  15
 LO BND1      CVA5..T3  2
 UP BND1      CVA5..T3  10
 UP BND1      CIN1..T4  15.016
 UP BND1      CIN3..T4  15.016
 UP BND1      CVA3..T4  10.011
 UP BND1      CIN5..T4  15.016
 UP BND1      CVA5..T4  10
 UP BND1      IP11..T1  15.016
 UP BND1      IP21..T1  15.016
 UP BND1      IP12..T1  15.016
 UP BND1      IP22..T1  15.016
 UP BND1      IP13..T1  10.011
 UP BND1      IP23..T1  10.011
 UP BND1      IP14..T1  10.011
 UP BND1      IP24..T1  10.011
 UP BND1      IP15..T1  15.016
 UP BND1      IP25..T1  15.016
 UP BND1      IP16..T1  15.016
 UP BND1      IP26..T1  15.016
 UP BND1      IP11..T2  400.401
 UP BND1      IP21..T2  400.401
 UP BND1      IP12..T2  800.801
 UP BND1      IP22..T2  800.801
 UP BND1      IP13..T2  1201.201
 UP BND1      IP23..T2  1201.201
 UP BND1      IP14..T2  1601.601
 UP BND1      IP24..T2  1601.601
 UP BND1      IP15..T2  2002.001
 UP BND1      IP25..T2  2002.001
 UP BND1      IP16..T2  2402.401
 UP BND1      IP26..T2  2402.401
 UP BND1      IP11..T3  8.009
 UP BND1      IP21..T3  8.009
 UP BND1      IP12..T3  8.009
 UP BND1      IP22..T3  8.009
 UP BND1      IP13..T3  10.011
 UP BND1      IP23..T3  10.011
 UP BND1      IP14..T3  10.011
 UP BND1      IP24..T3  10.011
 UP BND1      IP15..T3  15.016
 UP BND1      IP25..T3  15.016
 UP BND1      IP16..T3  15.016
 UP BND1      IP26..T3  15.016
 UP BND1      IP11..T4  400.401
 UP BND1      IP21..T4  400.401
 UP BND1      IP12..T4  800.801
 UP BND1      IP22..T4  800.801
 UP BND1      IP13..T4  1201.201
 UP BND1      IP23..T4  1201.201
 UP BND1      IP14..T4  1601.601
 UP BND1      IP24..T4  1601.601
 UP BND1      IP15..T4  2002.001
 UP BND1      IP25..T4  2002.001
 UP BND1      IP16..T4  2402.401
 UP BND1      IP26..T4  2402.401
 UP BND1      KIN1..T2  1
 UP BND1      KIN3..T2  1
 UP BND1      KIN5..T2  1
 UP BND1      KIN1..T4  1
 UP BND1      KIN3..T4  1
 UP BND1      KIN5..T4  1
 LO BND1      RBU1S1T1  10
 UP BND1      RBU1S1T1  25
 UP BND1      RBU1S2T1  25
 UP BND1      RPA1S1T1  390.391
 UP BND1      RPA1S2T1  400.401
 LO BND1      RBU2S1T1  10
 UP BND1      RBU2S1T1  25
 UP BND1      RBU2S2T1  25
 UP BND1      RPA2S1T1  390.391
 UP BND1      RPA2S2T1  400.401
 LO BND1      RBU3S1T1  10
 UP BND1      RBU3S1T1  25
 UP BND1      RBU3S2T1  25
 UP BND1      RPA3S1T1  390.391
 UP BND1      RPA3S2T1  400.401
 LO BND1      RBU4S1T1  10
 UP BND1      RBU4S1T1  25
 UP BND1      RBU4S2T1  25
 UP BND1      RPA4S1T1  390.391
 UP BND1      RPA4S2T1  400.401
 LO BND1      RBU5S1T1  10
 UP BND1      RBU5S1T1  25
 UP BND1      RBU5S2T1  25
 UP BND1      RPA5S1T1  390.391
 UP BND1      RPA5S2T1  400.401
 LO BND1      RBU6S1T1  10
 UP BND1      RBU6S1T1  25
 UP BND1      RBU6S2T1  25
 UP BND1      RPA6S1T1  390.391
 UP BND1      RPA6S2T1  400.401
 UP BND1      RBU1S1T2  25
 UP BND1      RBU1S2T2  25
 UP BND1      RPA1S1T2  400.401
 UP BND1      RPA1S2T2  400.401
 UP BND1      RBU2S1T2  25
 UP BND1      RBU2S2T2  25
 UP BND1      RPA2S1T2  400.401
 UP BND1      RPA2S2T2  400.401
 UP BND1      RBU3S1T2  25
 UP BND1      RBU3S2T2  25
 UP BND1      RPA3S1T2  400.401
 UP BND1      RPA3S2T2  400.401
 UP BND1      RBU4S1T2  25
 UP BND1      RBU4S2T2  25
 UP BND1      RPA4S1T2  400.401
 UP BND1      RPA4S2T2  400.401
 UP BND1      RBU5S1T2  25
 UP BND1      RBU5S2T2  25
 UP BND1      RPA5S1T2  400.401
 UP BND1      RPA5S2T2  400.401
 UP BND1      RBU6S1T2  25
 UP BND1      RBU6S2T2  25
 UP BND1      RPA6S1T2  400.401
 UP BND1      RPA6S2T2  400.401
 UP BND1      RBU2S2T3  25
 UP BND1      RPA2S2T3  400.401
 UP BND1      RBU3S1T3  25
 UP BND1      RBU3S2T3  25
 UP BND1      RPA3S1T3  400.401
 UP BND1      RPA3S2T3  400.401
 UP BND1      RBU4S1T3  25
 UP BND1      RBU4S2T3  25
 UP BND1      RPA4S1T3  400.401
 UP BND1      RPA4S2T3  400.401
 UP BND1      RBU5S2T3  25
 UP BND1      RPA5S2T3  400.401
 UP BND1      RBU6S2T3  25
 UP BND1      RPA6S2T3  400.401
 UP BND1      RBU1S1T4  25
 UP BND1      RBU1S2T4  25
 UP BND1      RPA1S1T4  400.401
 UP BND1      RPA1S2T4  400.401
 UP BND1      RBU2S1T4  25
 UP BND1      RBU2S2T4  25
 UP BND1      RPA2S1T4  400.401
 UP BND1      RPA2S2T4  400.401
 UP BND1      RBU3S1T4  25
 UP BND1      RBU3S2T4  25
 UP BND1      RPA3S1T4  400.401
 UP BND1      RPA3S2T4  400.401
 UP BND1      RBU4S1T4  25
 UP BND1      RBU4S2T4  25
 UP BND1      RPA4S1T4  400.401
 UP BND1      RPA4S2T4  400.401
 UP BND1      RBU5S1T4  25
 UP BND1      RBU5S2T4  25
 UP BND1      RPA5S1T4  400.401
 UP BND1      RPA5S2T4  400.401
 UP BND1      RBU6S1T4  25
 UP BND1      RBU6S2T4  25
 UP BND1      RPA6S1T4  400.401
 UP BND1      RPA6S2T4  400.401
 UP BND1      ZP11S1T1  200.201
 UP BND1      ZP11S2T1  200.201
 UP BND1      ZP21S1T1  200.201
 UP BND1      ZP21S2T1  200.201
 UP BND1      ZP12S1T1  200.201
 UP BND1      ZP12S2T1  200.201
 UP BND1      ZP22S1T1  200.201
 UP BND1      ZP22S2T1  200.201
 UP BND1      ZP13S1T1  200.201
 UP BND1      ZP13S2T1  200.201
 UP BND1      ZP23S1T1  200.201
 UP BND1      ZP23S2T1  200.201
 UP BND1      ZP14S1T1  200.201
 UP BND1      ZP14S2T1  200.201
 UP BND1      ZP24S1T1  200.201
 UP BND1      ZP24S2T1  200.201
 UP BND1      ZP15S1T1  200.201
 UP BND1      ZP15S2T1  200.201
 UP BND1      ZP25S1T1  200.201
 UP BND1      ZP25S2T1  200.201
 UP BND1      ZP16S1T1  200.201
 UP BND1      ZP16S2T1  200.201
 UP BND1      ZP26S1T1  200.201
 UP BND1      ZP26S2T1  200.201
 UP BND1      ZP11S1T2  200.201
 UP BND1      ZP11S2T2  200.201
 UP BND1      ZP21S1T2  200.201
 UP BND1      ZP21S2T2  200.201
 UP BND1      ZP12S1T2  200.201
 UP BND1      ZP12S2T2  200.201
 UP BND1      ZP22S1T2  200.201
 UP BND1      ZP22S2T2  200.201
 UP BND1      ZP13S1T2  200.201
 UP BND1      ZP13S2T2  200.201
 UP BND1      ZP23S1T2  200.201
 UP BND1      ZP23S2T2  200.201
 UP BND1      ZP14S1T2  200.201
 UP BND1      ZP14S2T2  200.201
 UP BND1      ZP24S1T2  200.201
 UP BND1      ZP24S2T2  200.201
 UP BND1      ZP15S1T2  200.201
 UP BND1      ZP15S2T2  200.201
 UP BND1      ZP25S1T2  200.201
 UP BND1      ZP25S2T2  200.201
 UP BND1      ZP16S1T2  200.201
 UP BND1      ZP16S2T2  200.201
 UP BND1      ZP26S1T2  200.201
 UP BND1      ZP26S2T2  200.201
 UP BND1      ZP11S1T3  200.201
 UP BND1      ZP11S2T3  200.201
 UP BND1      ZP21S1T3  200.201
 UP BND1      ZP21S2T3  200.201
 UP BND1      ZP12S1T3  200.201
 UP BND1      ZP12S2T3  200.201
 UP BND1      ZP22S1T3  200.201
 UP BND1      ZP22S2T3  200.201
 UP BND1      ZP13S1T3  200.201
 UP BND1      ZP13S2T3  200.201
 UP BND1      ZP23S1T3  200.201
 UP BND1      ZP23S2T3  200.201
 UP BND1      ZP14S1T3  200.201
 UP BND1      ZP14S2T3  200.201
 UP BND1      ZP24S1T3  200.201
 UP BND1      ZP24S2T3  200.201
 UP BND1      ZP15S1T3  200.201
 UP BND1      ZP15S2T3  200.201
 UP BND1      ZP25S1T3  200.201
 UP BND1      ZP25S2T3  200.201
 UP BND1      ZP16S1T3  200.201
 UP BND1      ZP16S2T3  200.201
 UP BND1      ZP26S1T3  200.201
 UP BND1      ZP26S2T3  200.201
 UP BND1      ZP11S1T4  200.201
 UP BND1      ZP11S2T4  200.201
 UP BND1      ZP21S1T4  200.201
 UP BND1      ZP21S2T4  200.201
 UP BND1      ZP12S1T4  200.201
 UP BND1      ZP12S2T4  200.201
 UP BND1      ZP22S1T4  200.201
 UP BND1      ZP22S2T4  200.201
 UP BND1      ZP13S1T4  200.201
 UP BND1      ZP13S2T4  200.201
 UP BND1      ZP23S1T4  200.201
 UP BND1      ZP23S2T4  200.201
 UP BND1      ZP14S1T4  200.201
 UP BND1      ZP14S2T4  200.201
 UP BND1      ZP24S1T4  200.201
 UP BND1      ZP24S2T4  200.201
 UP BND1      ZP15S1T4  200.201
 UP BND1      ZP15S2T4  200.201
 UP BND1      ZP25S1T4  200.201
 UP BND1      ZP25S2T4  200.201
 UP BND1      ZP16S1T4  200.201
 UP BND1      ZP16S2T4  200.201
 UP BND1      ZP26S1T4  200.201
 UP BND1      ZP26S2T4  200.201
 UP BND1      ZP22S102  200.201
 UP BND1      ZP24S102  200.201
 UP BND1      ZP26S102  200.201
 UP BND1      ZP12S203  200.201
 UP BND1      ZP14S203  200.201
 UP BND1      ZP16S203  200.201
 UP BND1      ZP11T104  25.026
 UP BND1      ZP21T104  25.026
 UP BND1      ZP12T104  25.026
 UP BND1      ZP22T104  25.026
 UP BND1      ZP13T104  25.026
 UP BND1      ZP23T104  25.026
 UP BND1      ZP14T104  25.026
 UP BND1      ZP24T104  25.026
 UP BND1      ZP15T104  25.026
 UP BND1      ZP25T104  25.026
 UP BND1      ZP16T104  25.026
 UP BND1      ZP26T104  25.026
 UP BND1      ZP11T405  25.026
 UP BND1      ZP21T305  25.026
 UP BND1      ZP21T405  25.026
 UP BND1      ZP12T305  25.026
 UP BND1      ZP12T405  25.026
 UP BND1      ZP22T405  25.026
 UP BND1      ZP13T305  25.026
 UP BND1      ZP13T405  50.051
 UP BND1      ZP23T305  25.026
 UP BND1      ZP23T405  50.051
 UP BND1      ZP14T405  50.051
 UP BND1      ZP24T405  50.051
 UP BND1      ZP15T305  25.026
 UP BND1      ZP15T405  75.076
 UP BND1      ZP25T405  75.076
 UP BND1      ZP16T405  75.076
 UP BND1      ZP26T405  75.076
 UP BND1      ZP11T206  25.026
 UP BND1      ZP21T206  25.026
 UP BND1      ZP12T206  25.026
 UP BND1      ZP22T206  25.026
 UP BND1      ZP13T206  50.051
 UP BND1      ZP23T206  50.051
 UP BND1      ZP14T206  50.051
 UP BND1      ZP24T206  50.051
 UP BND1      ZP15T206  75.076
 UP BND1      ZP25T206  75.076
 UP BND1      ZP16T206  75.076
 UP BND1      ZP26T206  75.076
 UP BND1      ZP11T309  25.026
 UP BND1      ZP22T309  25.026
 UP BND1      ZP14T309  25.026
 UP BND1      ZP24T309  25.026
 UP BND1      ZP25T309  25.026
 UP BND1      ZP16T309  25.026
 UP BND1      ZP26T309  25.026
ENDATA
